SECTION Graph
Nodes 80
Edges 79

E 1 48 290
E 1 77 287
E 2 33 287
E 2 52 290
E 2 75 285
E 3 20 287
E 3 22 287
E 4 62 284
E 5 22 291
E 5 24 287
E 6 14 290
E 6 80 285
E 7 8 290
E 7 71 289
E 9 33 286
E 9 79 287
E 10 50 289
E 11 22 288
E 12 28 288
E 12 60 289
E 12 70 288
E 13 29 288
E 13 43 288
E 13 45 288
E 14 19 291
E 14 40 287
E 15 18 290
E 15 27 289
E 16 75 287
E 17 40 288
E 18 32 289
E 18 39 291
E 20 66 289
E 21 51 290
E 22 69 284
E 23 46 288
E 25 67 286
E 26 29 288
E 30 79 289
E 31 64 289
E 31 70 289
E 31 75 289
E 32 41 283
E 32 44 289
E 33 38 288
E 34 36 290
E 34 56 289
E 34 73 286
E 34 78 289
E 35 41 290
E 37 50 288
E 37 57 285
E 38 67 286
E 41 64 284
E 42 72 285
E 42 77 285
E 43 78 287
E 44 80 289
E 46 79 289
E 47 49 288
E 47 76 290
E 49 54 288
E 49 68 290
E 50 51 287
E 50 65 290
E 50 74 291
E 51 53 289
E 51 72 286
E 53 69 282
E 55 77 289
E 56 71 290
E 57 76 289
E 58 70 290
E 59 67 288
E 61 79 284
E 62 63 286
E 62 64 284
E 62 73 287
E 69 78 282
END
SECTION Terminals
T 1
T 2
T 3
T 4
T 5
T 6
T 7
T 8
T 9
T 10
T 11
T 12
T 13
T 14
T 15
T 16
T 17
T 18
T 19
T 20
T 21
T 22
T 23
T 24
T 25
T 26
T 27
T 28
T 29
T 30
T 31
T 32
T 33
T 34
T 35
T 36
T 37
T 38
T 39
T 40
T 41
T 42
T 43
T 44
T 45
T 46
T 47
T 48
T 49
T 50
T 51
T 52
T 53
T 54
T 55
T 56
T 57
T 58
T 59
T 60
T 61
T 62
T 63
T 64
T 65
T 66
T 67
T 68
T 69
T 70
T 71
T 72
T 73
T 74
T 75
T 76
T 77
T 78
T 79
T 80
END
SECTION Cost
22733
END
